#SOLVERNAME# PAJ_Gurobi_MOSEK_msd_scale_subponly_noinit
#SOLVER# Pajarito.PajaritoSolver(3, 3600.0, 1.0e-5, true, Gurobi.GurobiSolver(nothing, Any[(:OutputFlag, 1), (:Threads, 8), (:IntFeasTol, 1.0e-9), (:FeasibilityTol, 1.0e-6), (:MIPGap, 1.0e-5)]), Pajarito.UnsetSolver(), 0, false, true, Mosek.MosekSolver(Any[(:LOG, 0), (:NUM_THREADS, 8), (:MSK_DPAR_INTPNT_CO_TOL_REL_GAP, 1.0e-10), (:MSK_DPAR_INTPNT_CO_TOL_PFEAS, 1.0e-10), (:MSK_DPAR_INTPNT_CO_TOL_DFEAS, 1.0e-10), (:MSK_DPAR_INTPNT_CO_TOL_NEAR_REL, 1000.0)]), true, true, false, false, true, false, false, true, false, false, false, false, false, false, true, 10.0, true, false, false, false, 1.0e-12, 1.0e-6, false, "")
#INSTANCE# ck_n75_m10_o3_5.cbf.gz
#TIMELIMIT# 3600.0

Problem dimensions:
       variables |    1606
     constraints |    1605
   nonzeros in A |    2629

Cones summary:
Cone             | Count   | Min dim.  | Max dim. 
    Rotated S.O. |      10 |        77 |        77

Variable types:
      continuous |    1531
         integer |      75

Transforming data...               0.00s

Creating conic subproblem...       0.03s

Building MIP model...              0.00s

Solving conic relaxation...        0.02s
 - Relaxation status    =        Optimal
 - Relaxation bound     =  -31769.399989
Academic license - for non-commercial use only
Warning for adding constraints: zero or small (< 1e-13) coefficients, ignored
Optimize a model with 1772 rows, 2365 columns and 4096 nonzeros
Variable types: 2290 continuous, 75 integer (0 binary)
Coefficient statistics:
  Matrix range     [1e-13, 3e+02]
  Objective range  [4e+01, 1e+03]
  Bounds range     [0e+00, 0e+00]
  RHS range        [1e+00, 8e+02]
Warning: Model contains large matrix coefficient range
         Consider reformulating model or setting NumericFocus parameter
         to avoid numerical issues.
Found heuristic solution: objective -5578.000000
Presolve removed 1634 rows and 1520 columns
Presolve time: 0.00s
Presolved: 138 rows, 845 columns, 1356 nonzeros
Variable types: 770 continuous, 75 integer (75 binary)

Root relaxation: objective -3.175112e+04, 153 iterations, 0.00 seconds

    Nodes    |    Current Node    |     Objective Bounds      |     Work
 Expl Unexpl |  Obj  Depth IntInf | Incumbent    BestBd   Gap | It/Node Time

     0     0 -31751.116    0   21 -5578.0000 -31751.116   469%     -    0s
H    0     0                    -26679.00000 -31751.116  19.0%     -    0s
     0     0 -31411.069    0   25 -26679.000 -31411.069  17.7%     -    0s
     0     0 -31167.603    0   30 -26679.000 -31167.603  16.8%     -    0s
     0     0 -31144.029    0   28 -26679.000 -31144.029  16.7%     -    0s
     0     0 -31144.023    0   28 -26679.000 -31144.023  16.7%     -    0s
     0     0 -30954.158    0   33 -26679.000 -30954.158  16.0%     -    0s
     0     0 -30912.838    0   36 -26679.000 -30912.838  15.9%     -    0s
     0     0 -30885.523    0   35 -26679.000 -30885.523  15.8%     -    0s
     0     0 -30885.251    0   35 -26679.000 -30885.251  15.8%     -    0s
     0     0 -30815.222    0   31 -26679.000 -30815.222  15.5%     -    0s
     0     0 -30811.067    0   32 -26679.000 -30811.067  15.5%     -    0s
     0     0 -30810.396    0   32 -26679.000 -30810.396  15.5%     -    0s
     0     0 -30789.966    0   35 -26679.000 -30789.966  15.4%     -    0s
     0     0 -30788.102    0   36 -26679.000 -30788.102  15.4%     -    0s
     0     0 -30770.110    0   33 -26679.000 -30770.110  15.3%     -    0s
H    0     0                    -28481.00000 -30770.110  8.04%     -    0s
H    0     0                    -28579.00000 -30770.110  7.67%     -    0s
     0     2 -30770.110    0   33 -28579.000 -30770.110  7.67%     -    0s
H  170   162                    -28679.00000 -30449.232  6.17%  28.4    0s
H  195   182                    -28711.00000 -30449.232  6.05%  26.2    0s
H  545   379                    -28997.00000 -30346.328  4.65%  20.7    0s
H  546   340                    -29201.00000 -30346.328  3.92%  20.7    0s
H 1114   610                    -29217.00000 -30133.426  3.14%  19.6    0s
H 2511   853                    -29248.00000 -29944.113  2.38%  21.1    1s
* 2803   788              31    -29314.00000 -29911.441  2.04%  21.1    1s
H 3289   616                    -29351.00000 -29858.994  1.73%  20.9    1s
* 4098   547              31    -29380.00000 -29762.561  1.30%  20.7    2s
H 5544    27                    -29489.00000 -29561.885  0.25%  20.1    2s

Cutting planes:
  Gomory: 5
  Cover: 25
  Implied bound: 1
  MIR: 156
  StrongCG: 2
  Flow cover: 64
  Inf proof: 3
  Lazy constraints: 34

Explored 5623 nodes (112730 simplex iterations) in 2.49 seconds
Thread count was 8 (of 16 available processors)

Solution count 10: -29489 -29380 -29351 ... -28679

Optimal solution found (tolerance 1.00e-05)
Best objective -2.948900000000e+04, best bound -2.948900000000e+04, gap 0.0000%

Starting MIP-solver-driven algorithm

MIP-solver-driven algorithm summary:
 - Status               =        Optimal
 - Best feasible        =  -2.948900e+04
 - Best bound           =  -2.948900e+04
 - Relative opt. gap    =      0.000e+00
 - Total time (s)       =       2.55e+00

Timers (s):
 - Setup                =   3.24e-02
 -- Transform data      =   8.13e-04
 -- Create conic data   =   2.87e-02
 -- Create MIP data     =   2.92e-03
 - Algorithm            =   2.51e+00
 -- Solve relaxation    =   1.96e-02
 -- Get relaxation cuts =   3.93e-04
 -- MIP solver driving  =   2.49e+00
 -- Solve subproblems   =   1.15e-01
 -- Get subproblem cuts =   2.59e-03
 -- Get separation cuts =   0.00e+00

Counters:
 - Lazy callbacks       =    23
 -- Integer repeats     =     2
 -- Conic subproblems   =    22
 --- Infeasible         =     8
 --- Optimal            =    14
 --- Suboptimal         =     0
 --- UserLimit          =     0
 --- ConicFailure       =     0
 --- Other status       =     0
 -- Feasible solutions  =    14
 --- From subproblems   =    14
 --- In lazy callback   =     0
 - Heuristic callbacks  =  3838
 -- Solutions passed    =    12

Solution returned by conic solver

Rounds of full separation/subproblem cuts, and count of cuts added:
Cone             | Subp.  | Sep.   | Total  | Relax. | Viol. 
    Second order |     91 |      0 |    237 |    147 |    237

29 numerically unstable disaggregated SOC cuts

Distance to feasibility (negative indicates strict feasibility):
Cone             | Variable  | Constraint
          Linear |  0.00e+00 |  5.68e-14
    Rotated S.O. | -1.30e+00 |        NA

Distance to integrality of integer/binary variables:
         integer |  2.44e-15

#STATUS# Optimal
#OBJVAL# 29489.0
#OBJBOUND# 29489.0
#NODECOUNT# 5623
#TIMESOLVER# 2.5465188026428223
#TIMEALL# 2.597986936569214
#SOLUTION# [-0.0,1.0,1.0,1.0,1.0,1.0,0.999999999999999,1.0,0.0,-0.0,1.0000000000000004,-0.0,1.0,-0.0,0.0,-0.0,1.0,0.0,-0.0,-0.0,1.0,1.0,1.0,1.0,1.0,1.0,0.0,-0.0,1.0,1.0,1.0000000000000009,1.0,1.0,1.0,1.0,1.0,-0.0,0.0,-0.0,-0.0,0.0,1.0,0.0,-0.0,1.0,1.0,1.0,0.0,-0.0,1.0,-0.0,-0.0,1.0,-0.0,-0.0,1.0,1.0,-0.0,1.0,0.9999999999999992,1.0,1.0,0.9999999999999976,1.0,1.0,1.0,1.0,1.0,1.0,-0.0,0.0,1.0,1.0,1.0,1.0,0.0,0.0,25.0,7.0,0.0,0.0,0.0,81.99999999999991,0.0,0.0,0.0,0.0,0.0,0.0,0.0,0.0,0.0,0.0,0.0,0.0,0.0,0.0,0.0,0.0,0.0,105.0,2.0,0.0,0.0,0.0,0.0,0.0,0.0,1.0,0.0,0.0,0.0,0.0,0.0,0.0,0.0,0.0,0.0,0.0,0.0,0.0,0.0,0.0,0.0,0.0,0.0,0.0,0.0,3.0,0.0,0.0,0.0,0.0,0.0,0.0,0.0,0.0,4.0,0.0,0.0,0.0,0.0,0.0,188.0,0.0,0.0,0.0,0.0,0.0,0.0,60.0,251.22937430021526,0.0,93.0,62.0,0.0,0.0,0.0,39.99999999999996,0.0,0.0,0.0,0.0,0.0,0.0,0.0,0.0,0.0,0.0,0.0,0.0,0.0,0.0,0.0,0.0,0.0,0.0,0.0,0.0,0.0,0.0,0.0,0.0,0.0,0.0,0.0,0.0,0.0,0.0,0.0,0.0,0.0,0.0,0.0,0.0,0.0,38.0,0.0,0.0,0.0,0.0,0.0,0.0,0.0,0.0,0.0,0.0,0.0,0.0,0.0,0.0,0.0,0.0,0.0,0.0,0.0,0.0,0.0,0.0,0.0,26.0,0.0,0.0,0.0,0.0,68.0,0.0,161.4817519137694,0.0,0.0,0.0,0.0,0.0,0.0,0.0,0.0,0.0,0.0,0.0,0.0,54.0,0.0,0.0,0.0,0.0,0.0,0.0,0.0,0.0,65.0,0.0,0.0,0.0,0.0,0.0,0.0,0.0,0.0,0.0,0.0,0.0,36.0,0.0,0.0,0.0,0.0,0.0,0.0,0.0,0.0,0.0,0.0,0.0,0.0,0.0,0.0,0.0,0.0,0.0,0.0,0.0,0.0,0.0,0.0,0.0,0.0,0.0,0.0,0.0,0.0,29.999999999999925,100.0,0.0,0.0,0.0,0.0,0.0,0.0,0.0,0.0,0.0,0.0,0.0,156.11981916139777,0.0,0.0,0.0,0.0,0.0,0.0,0.0,3.0,0.0,0.0,0.0,0.0,0.0,0.0,0.0,0.0,0.0,0.0,0.0,0.0,0.0,0.0,0.0,0.0,0.0,0.0,0.0,0.0,0.0,0.0,0.0,0.0,0.0,0.0,0.0,0.0,0.0,0.0,0.0,0.0,0.0,0.0,0.0,0.0,0.0,0.0,0.0,0.0,0.0,27.0,0.0,0.0,0.0,0.0,0.0,93.0,0.0,0.0,0.0,0.0,0.0,0.0,0.0,46.0,0.0,0.0,0.0,1.0,0.0,0.0,0.0,0.0,198.0,26.0,0.0,236.30601636399405,0.0,0.0,0.0,0.0,5.0,0.0,0.0,0.0,0.0,0.0,0.0,0.0,0.0,0.0,0.0,0.0,0.0,0.0,0.0,0.0,47.0,0.0,0.0,0.0,0.0,0.0,0.0,0.0,0.0,0.0,27.000000000000025,7.0,0.0,0.0,0.0,0.0,0.0,0.0,0.0,0.0,0.0,0.0,0.0,0.0,0.0,0.0,0.0,0.0,0.0,133.0,0.0,0.0,32.0,0.0,0.0,0.0,0.0,0.0,169.0,0.0,0.0,0.0,0.0,0.0,81.0,0.0,0.0,0.0,0.0,0.0,0.0,0.0,0.0,0.0,0.0,254.4711611686013,0.0,0.0,0.0,0.0,80.0,0.0,0.0,117.0,0.0,0.0,0.0,0.0,0.0,0.0,0.0,0.0,0.0,0.0,0.0,0.0,0.0,0.0,0.0,0.0,0.0,0.0,0.0,0.0,0.0,0.0,0.0,0.0,156.0,0.0,53.0,50.0,0.0,0.0,0.0,0.0,0.0,0.0,0.0,0.0,0.0,8.0,0.0,0.0,0.0,2.0,0.0,0.0,0.0,0.0,0.0,0.0,0.0,0.0,0.0,26.99999999999998,87.0,0.0,0.0,0.0,95.0,0.0,0.0,0.0,88.0,0.0,0.0,0.0,0.0,0.0,0.0,277.5838448733677,0.0,0.0,0.0,0.0,0.0,0.0,0.0,170.0,0.0,0.0,3.0000000000000013,0.0,100.0,0.0,0.0,0.0,36.0,0.0,0.0,0.0,0.0,0.0,0.0,0.0,0.0,0.0,0.0,0.0,0.0,0.0,0.0,0.0,0.0,0.0,0.0,0.0,0.0,0.0,0.0,0.0,0.0,0.0,0.0,0.0,0.0,0.0,0.0,0.0,0.0,0.0,0.0,0.0,0.0,0.0,0.0,0.0,0.0,0.0,0.0,0.0,0.0,0.0,0.0,0.0,0.0,0.0,0.0,0.0,14.0,0.0,0.0,0.0,0.0,0.0,0.0,208.3419754452182,0.0,0.0,0.0,0.0,1.0,0.0,0.0,0.0,0.0,0.0,0.0,0.0,0.0,0.0,0.0,0.0,0.0,0.0,0.0,0.0,0.0,0.0,0.0,0.0,0.0,0.0,0.0,0.0,0.0,0.0,0.0,0.0,0.0,94.0,0.0,0.0,0.0,0.0,0.0,0.0,0.0,0.0,0.0,0.0,0.0,0.0,0.0,0.0,0.0,0.0,0.0,0.0,0.0,0.0,0.0,0.0,0.0,0.0,52.0,0.0,0.0,0.0,0.0,0.0,0.0,0.0,0.0,0.0,0.0,0.0,0.0,0.0,0.0,0.0,0.0,113.61534377140158,0.0,0.0,0.0,0.0,0.0,0.0,0.0,0.0,0.0,0.0,0.0,0.0,0.0,0.0,0.0,0.0,0.0,0.0,0.0,0.0,0.0,1.0,0.0,0.0,0.0,0.0,0.0,0.0,0.0,0.0,0.0,0.0,0.0,0.0,0.0,0.0,0.0,0.0,0.0,0.0,0.0,0.0,0.0,0.0,0.0,148.0,0.0,0.0,0.0,97.0,0.0,0.0,0.0,0.0,0.0,0.0,4.0,0.0,0.0,189.99999999999986,0.0,0.0,0.0,0.0,0.0,0.0,0.0,0.0,0.0,0.0,0.0,0.0,0.0,5.0,0.0,260.699368804108,0.0,0.0,0.0,0.0,0.0,0.0,0.0,0.0,0.0,0.0,0.0,0.0,0.0,0.0,0.0,0.0,0.0,0.0,0.0,0.0,0.0,0.0,0.0,0.0,0.0,0.0,0.0,0.0,0.0,0.0,0.0,0.0,0.0,0.0,0.0,0.0,0.0,0.0,0.0,0.0,0.0,0.0,0.0,0.0,0.0,0.0,0.0,0.0,0.0,0.0,0.0,0.0,5.0,0.0,0.0,0.0,0.0,0.0,0.0,0.0,0.0,0.0,0.0,0.0,0.0,0.0,0.0,0.0,0.0,0.0,0.0,0.0,0.0,77.0,0.0,79.06543030811774,355.2919884018711,177.64599420093558,0.0,35.35533905932737,9.899494936611664,0.0,0.0,0.0,115.96551211459366,0.0,0.0,0.0,0.0,0.0,0.0,0.0,0.0,0.0,0.0,0.0,0.0,0.0,0.0,0.0,0.0,0.0,148.49242404917496,2.82842712474619,0.0,0.0,0.0,0.0,0.0,0.0,1.414213562373095,0.0,0.0,0.0,0.0,0.0,0.0,0.0,0.0,0.0,0.0,0.0,0.0,0.0,0.0,0.0,0.0,0.0,0.0,0.0,4.242640687119285,0.0,0.0,0.0,0.0,0.0,0.0,0.0,0.0,5.65685424949238,0.0,0.0,0.0,0.0,0.0,265.87214972614186,0.0,0.0,0.0,0.0,0.0,0.0,84.85281374238569,228.36968363222013,114.1848418161101,0.0,131.52186130069782,87.68124086713189,0.0,0.0,0.0,56.56854249492374,0.0,0.0,0.0,0.0,0.0,0.0,0.0,0.0,0.0,0.0,0.0,0.0,0.0,0.0,0.0,0.0,0.0,0.0,0.0,0.0,0.0,0.0,0.0,0.0,0.0,0.0,0.0,0.0,0.0,0.0,0.0,0.0,0.0,0.0,0.0,0.0,0.0,53.740115370177605,0.0,0.0,0.0,0.0,0.0,0.0,0.0,0.0,0.0,0.0,0.0,0.0,0.0,0.0,0.0,0.0,0.0,0.0,0.0,0.0,0.0,0.0,0.0,36.76955262170047,0.0,0.0,0.0,0.0,96.16652224137046,0.0,220.7867656132837,110.39338280664188,0.0,0.0,0.0,0.0,0.0,0.0,0.0,0.0,0.0,0.0,0.0,0.0,76.36753236814712,0.0,0.0,0.0,0.0,0.0,0.0,0.0,0.0,91.92388155425117,0.0,0.0,0.0,0.0,0.0,0.0,0.0,0.0,0.0,0.0,0.0,50.91168824543142,0.0,0.0,0.0,0.0,0.0,0.0,0.0,0.0,0.0,0.0,0.0,0.0,0.0,0.0,0.0,0.0,0.0,0.0,0.0,0.0,0.0,0.0,0.0,0.0,0.0,0.0,0.0,0.0,42.42640687119274,141.42135623730948,0.0,0.0,0.0,0.0,0.0,0.0,0.0,0.0,0.0,0.0,0.0,334.1871732123189,167.09358660615948,0.0,0.0,0.0,0.0,0.0,0.0,0.0,4.242640687119285,0.0,0.0,0.0,0.0,0.0,0.0,0.0,0.0,0.0,0.0,0.0,0.0,0.0,0.0,0.0,0.0,0.0,0.0,0.0,0.0,0.0,0.0,0.0,0.0,0.0,0.0,0.0,0.0,0.0,0.0,0.0,0.0,0.0,0.0,0.0,0.0,0.0,0.0,0.0,0.0,0.0,38.18376618407356,0.0,0.0,0.0,0.0,0.0,131.52186130069782,0.0,0.0,0.0,0.0,0.0,0.0,0.0,65.05382386916237,0.0,0.0,0.0,1.414213562373095,0.0,0.0,0.0,0.0,280.0142853498728,36.76955262170047,0.0,359.8765673574656,179.93828367873283,0.0,0.0,0.0,0.0,7.071067811865475,0.0,0.0,0.0,0.0,0.0,0.0,0.0,0.0,0.0,0.0,0.0,0.0,0.0,0.0,0.0,66.46803743153546,0.0,0.0,0.0,0.0,0.0,0.0,0.0,0.0,0.0,38.1837661840736,9.899494936611664,0.0,0.0,0.0,0.0,0.0,0.0,0.0,0.0,0.0,0.0,0.0,0.0,0.0,0.0,0.0,0.0,0.0,188.09040379562163,0.0,0.0,45.25483399593904,0.0,0.0,0.0,0.0,0.0,239.00209204105303,0.0,0.0,0.0,0.0,0.0,114.55129855222069,0.0,0.0,0.0,0.0,0.0,0.0,0.0,0.0,0.0,0.0,392.56283811558586,196.281419057793,0.0,0.0,0.0,0.0,113.1370849898476,0.0,0.0,165.4629867976521,0.0,0.0,0.0,0.0,0.0,0.0,0.0,0.0,0.0,0.0,0.0,0.0,0.0,0.0,0.0,0.0,0.0,0.0,0.0,0.0,0.0,0.0,0.0,0.0,220.61731573020282,0.0,74.95331880577403,70.71067811865474,0.0,0.0,0.0,0.0,0.0,0.0,0.0,0.0,0.0,11.31370849898476,0.0,0.0,0.0,2.82842712474619,0.0,0.0,0.0,0.0,0.0,0.0,0.0,0.0,0.0,38.183766184073534,123.03657992645925,0.0,0.0,0.0,134.350288425444,0.0,0.0,0.0,124.45079348883235,0.0,0.0,0.0,0.0,0.0,0.0,294.6400472862299,147.32002364311498,0.0,0.0,0.0,0.0,0.0,0.0,0.0,240.41630560342614,0.0,0.0,4.2426406871192865,0.0,141.42135623730948,0.0,0.0,0.0,50.91168824543142,0.0,0.0,0.0,0.0,0.0,0.0,0.0,0.0,0.0,0.0,0.0,0.0,0.0,0.0,0.0,0.0,0.0,0.0,0.0,0.0,0.0,0.0,0.0,0.0,0.0,0.0,0.0,0.0,0.0,0.0,0.0,0.0,0.0,0.0,0.0,0.0,0.0,0.0,0.0,0.0,0.0,0.0,0.0,0.0,0.0,0.0,0.0,0.0,0.0,0.0,0.0,19.798989873223327,0.0,0.0,0.0,0.0,0.0,0.0,160.67636005519765,80.33818002759884,0.0,0.0,0.0,0.0,1.414213562373095,0.0,0.0,0.0,0.0,0.0,0.0,0.0,0.0,0.0,0.0,0.0,0.0,0.0,0.0,0.0,0.0,0.0,0.0,0.0,0.0,0.0,0.0,0.0,0.0,0.0,0.0,0.0,0.0,132.93607486307093,0.0,0.0,0.0,0.0,0.0,0.0,0.0,0.0,0.0,0.0,0.0,0.0,0.0,0.0,0.0,0.0,0.0,0.0,0.0,0.0,0.0,0.0,0.0,0.0,73.53910524340094,0.0,0.0,0.0,0.0,0.0,0.0,0.0,0.0,0.0,0.0,0.0,0.0,0.0,0.0,0.0,0.0,368.68458306487486,184.34229153243746,0.0,0.0,0.0,0.0,0.0,0.0,0.0,0.0,0.0,0.0,0.0,0.0,0.0,0.0,0.0,0.0,0.0,0.0,0.0,0.0,0.0,1.414213562373095,0.0,0.0,0.0,0.0,0.0,0.0,0.0,0.0,0.0,0.0,0.0,0.0,0.0,0.0,0.0,0.0,0.0,0.0,0.0,0.0,0.0,0.0,0.0,209.30360723121805,0.0,0.0,0.0,137.17871555019022,0.0,0.0,0.0,0.0,0.0,0.0,5.65685424949238,0.0,0.0,268.70057685088784,0.0,0.0,0.0,0.0,0.0,0.0,0.0,0.0,0.0,0.0,0.0,0.0,0.0,7.071067811865475,0.0,111.81540385660486,55.907701928302444,0.0,0.0,0.0,0.0,0.0,0.0,0.0,0.0,0.0,0.0,0.0,0.0,0.0,0.0,0.0,0.0,0.0,0.0,0.0,0.0,0.0,0.0,0.0,0.0,0.0,0.0,0.0,0.0,0.0,0.0,0.0,0.0,0.0,0.0,0.0,0.0,0.0,0.0,0.0,0.0,0.0,0.0,0.0,0.0,0.0,0.0,0.0,0.0,0.0,0.0,0.0,0.0,7.071067811865475,0.0,0.0,0.0,0.0,0.0,0.0,0.0,0.0,0.0,0.0,0.0,0.0,0.0,0.0,0.0,0.0,0.0,0.0,0.0,0.0,108.8944443027283,0.0]
